NAME: line_40_66
TYPE: TSP
COMMENT: srandom_40_66
DIMENSION: 40
EDGE_WEIGHT_TYPE: EUC_2D
NODE_COORD_SECTION
1 379 4830
2 1340 361
3 3989 2947
4 3639 578
5 4820 4865
6 909 765
7 4052 1728
8 2031 1674
9 4621 1794
10 3211 3699
11 4345 2046
12 2307 2396
13 1814 492
14 2101 2875
15 701 3496
16 4405 2048
17 2160 2591
18 4453 3187
19 4587 4055
20 4462 3088
21 3342 4535
22 868 3451
23 4836 399
24 1157 1159
25 1666 4592
26 1915 3634
27 2540 268
28 4948 2918
29 3059 2732
30 618 2284
31 4322 2712
32 3237 540
33 1109 234
34 3641 2555
35 824 2881
36 3617 3994
37 4653 1011
38 1874 147
39 1683 2520
40 2369 122
